30 60
28
9 24 0 36
9 8 21 11
9 11 21 0
9 17 9 19
4 24 9 36
4 8 0 28
1 6 3 22
1 5 3 17
4 17 3 0
3 6 13 54
3 5 6 31
12 5 18 19
12 13 18 38
14 14 7 0
2 14 4 17
2 2 16 49
8 3 13 14
8 9 22 51
12 14 18 24
12 2 9 17
6 3 7 14
6 9 16 51
2 5 4 31
2 13 16 36
3 18 13 36
3 14 6 17
3 16 0 0
3 12 0 16
